765
2621
882
7903
3447
6265
1935
9707
3443
5158
8813
8212
3562
2054
6069
10144
1148
8818
857
2676
7285
7129
1017
9286
3485
7112
4718
9652
9674
7857
3879
8906
6948
8342
6957
808
962
708
7388
9530
6194
5175
3812
4926
4207
3003
3727
6153
6793
6864
869
